p ocr 1078 991 2148
2 1079
2 1081
3 1079
4 1079
5 1079
6 1079
7 1079
8 1079
9 1079
10 1079
11 1079
12 1079
13 1079
14 1079
15 1079
16 1079
17 1079
18 1079
19 1079
20 1079
21 1079
22 1079
23 1079
24 1079
25 1079
26 1079
27 1079
28 1079
29 1079
30 1079
31 1079
32 1079
33 1079
34 1079
35 1079
36 1079
37 1079
38 1079
39 1079
40 1079
41 1079
42 1079
43 1079
44 1079
45 1079
46 1079
47 1079
48 1079
49 1079
50 1079
51 1079
52 1079
53 1079
54 1079
55 1079
56 1079
57 1079
58 1079
59 1079
60 1079
61 1079
62 1079
63 1079
64 1079
65 1079
66 1079
67 1079
68 1079
69 1079
70 1079
71 1079
72 1079
73 1079
74 1079
75 1079
76 1079
77 1079
78 1079
79 1079
80 1079
81 1079
82 1079
83 1079
84 1079
85 1079
86 1079
87 1079
88 1079
89 1079
90 1079
91 1079
92 1079
93 1079
94 1079
95 1079
96 1079
97 1079
98 1079
99 1079
100 1079
101 1079
102 1079
103 1079
104 1079
105 1079
106 1079
107 1079
108 1079
109 1079
110 1079
111 1079
112 1079
113 1079
114 1079
115 1079
116 1079
117 1079
118 1079
119 1079
120 1079
121 1079
122 1079
123 1079
124 1079
125 1079
126 1079
127 1079
128 1079
129 1079
130 1079
131 1079
132 1079
133 1079
134 1079
135 1079
136 1079
137 1079
138 1079
139 1079
140 1079
141 1079
142 1079
143 1079
144 1079
145 1079
146 1079
147 1079
148 1079
149 1079
150 1079
151 1079
152 1079
153 1079
154 1079
155 1079
156 1079
157 1079
158 1079
159 1079
160 1079
161 1079
162 1079
163 1079
164 1079
165 1079
166 1079
167 1079
168 1079
169 1079
170 1079
171 1079
172 1079
173 1079
174 1079
175 1079
176 1079
177 1079
178 1079
179 1079
180 1079
181 1079
182 1079
183 1079
184 1079
185 1079
186 1079
187 1079
188 1079
189 1079
190 1079
191 1079
192 1079
193 1079
194 1079
195 1079
196 1079
197 1079
198 1079
199 1079
200 1079
201 1079
202 1079
203 1079
204 1079
205 1079
206 1079
207 1079
208 1079
209 1079
210 1079
1 1079
212 1079
212 1082
212 1083
212 1084
212 1085
212 1086
212 1087
212 1088
212 1089
212 1090
212 1091
212 1092
212 1093
212 1094
212 1095
212 1096
212 1097
212 1098
212 1099
212 1100
212 1101
212 1102
212 1103
212 1104
212 1105
212 1106
212 1107
212 1108
212 1109
212 1110
212 1111
212 1112
212 1113
212 1114
212 1115
212 1116
212 1117
212 1118
212 1119
212 1120
212 1121
212 1122
212 1123
212 1124
212 1125
212 1126
212 1127
212 1128
212 1129
212 1130
212 1131
212 1132
212 1133
212 1134
212 1135
212 1136
212 1137
212 1138
212 1139
212 1140
212 1141
212 1142
212 1143
212 1144
212 1145
212 1146
212 1147
212 1148
212 1149
212 1150
212 1151
212 1152
212 1153
212 1154
212 1155
212 1156
212 1157
212 1158
212 1159
212 1160
212 1161
212 1162
212 1163
212 1164
212 1165
212 1166
212 1167
212 1168
212 1169
212 1170
212 1171
212 1172
212 1173
212 1174
212 1175
212 1176
212 1177
212 1178
212 1179
212 1180
212 1181
212 1182
212 1183
212 1184
212 1185
212 1186
212 1187
212 1188
212 1189
212 1190
212 1191
212 1192
212 1193
212 1194
212 1195
212 1196
212 1197
212 1198
212 1199
212 1200
212 1201
212 1202
212 1203
212 1204
212 1205
212 1206
212 1207
212 1208
212 1209
212 1210
212 1211
212 1212
212 1213
212 1214
212 1215
212 1216
212 1217
212 1218
212 1219
212 1220
212 1221
212 1222
212 1223
212 1224
212 1225
212 1226
212 1227
212 1228
212 1229
212 1230
212 1231
212 1232
212 1233
212 1234
212 1235
212 1236
212 1237
212 1238
212 1239
212 1240
212 1241
212 1242
212 1243
212 1244
212 1245
212 1246
212 1247
212 1248
212 1249
212 1250
212 1251
212 1252
212 1253
212 1254
212 1255
212 1256
212 1257
212 1258
212 1259
212 1260
212 1261
212 1262
212 1263
212 1264
212 1265
212 1266
212 1267
212 1268
212 1269
212 1270
212 1271
212 1272
212 1273
212 1274
212 1275
212 1276
212 1277
212 1278
212 1279
212 1280
212 1281
212 1282
212 1283
212 1284
212 1285
212 1286
212 1287
212 1288
212 1289
212 1290
212 1080
213 1081
214 1081
215 1081
216 1081
217 1081
218 1081
219 1081
220 1081
221 1081
222 1081
223 1081
224 1081
225 1081
226 1081
227 1081
228 1081
229 1081
230 1081
211 1081
231 1081
231 1291
231 1292
231 1293
231 1294
231 1295
232 1291
232 1292
232 1293
232 1294
232 1295
233 1291
233 1292
233 1293
233 1294
233 1295
234 1291
234 1292
234 1293
234 1294
234 1295
235 1291
235 1292
235 1293
235 1294
235 1295
235 1296
235 1298
236 1296
237 1296
238 1296
239 1296
240 1296
241 1296
242 1296
243 1296
244 1296
245 1296
246 1296
247 1296
248 1296
249 1296
250 1296
251 1296
252 1296
253 1296
254 1296
255 1296
256 1296
257 1296
258 1296
259 1296
260 1296
261 1296
262 1296
263 1296
264 1296
265 1296
266 1296
267 1296
268 1296
269 1296
270 1296
271 1296
272 1296
273 1296
274 1296
275 1296
276 1296
277 1296
278 1296
279 1296
280 1296
281 1296
282 1296
283 1296
284 1296
285 1296
286 1296
287 1296
288 1296
289 1296
290 1296
291 1296
292 1296
293 1296
294 1296
295 1296
296 1296
297 1296
298 1296
299 1296
300 1296
301 1296
302 1296
303 1296
304 1296
305 1296
306 1296
307 1296
308 1296
309 1296
310 1296
311 1296
312 1296
313 1296
314 1296
315 1296
316 1296
317 1296
318 1296
319 1296
320 1296
321 1296
322 1296
323 1296
324 1296
325 1296
326 1296
327 1296
328 1296
329 1296
330 1296
331 1296
332 1296
333 1296
334 1296
335 1296
336 1296
337 1296
338 1296
339 1296
340 1296
341 1296
342 1296
343 1296
344 1296
345 1296
346 1296
347 1296
348 1296
349 1296
350 1296
351 1296
352 1296
353 1296
354 1296
355 1296
356 1296
357 1296
358 1296
359 1296
360 1296
361 1296
362 1296
363 1296
364 1296
365 1296
366 1296
367 1296
368 1296
369 1296
370 1296
371 1296
372 1296
373 1296
374 1296
375 1296
376 1296
377 1296
378 1296
379 1296
380 1296
381 1296
382 1296
383 1296
384 1296
385 1296
386 1296
387 1296
388 1296
389 1296
390 1296
391 1296
392 1296
393 1296
394 1296
395 1296
396 1296
397 1296
398 1296
399 1296
400 1296
401 1296
402 1296
403 1296
404 1296
405 1296
407 1296
407 1299
407 1300
407 1301
407 1302
407 1303
407 1304
407 1305
407 1306
407 1307
407 1308
407 1309
407 1310
407 1311
407 1312
407 1313
407 1314
407 1315
407 1316
407 1317
407 1318
407 1319
407 1320
407 1321
407 1322
407 1323
407 1324
407 1325
407 1326
407 1327
407 1328
407 1329
407 1330
407 1331
407 1332
407 1333
407 1334
407 1335
407 1336
407 1337
407 1338
407 1339
407 1340
407 1341
407 1342
407 1343
407 1344
407 1345
407 1346
407 1347
407 1348
407 1349
407 1350
407 1351
407 1352
407 1353
407 1354
407 1355
407 1356
407 1357
407 1358
407 1359
407 1360
407 1361
407 1362
407 1363
407 1364
407 1365
407 1366
407 1367
407 1368
407 1369
407 1370
407 1371
407 1372
407 1373
407 1374
407 1375
407 1376
407 1377
407 1378
407 1379
407 1380
407 1381
407 1382
407 1383
407 1384
407 1385
407 1386
407 1387
407 1388
407 1389
407 1390
407 1391
407 1392
407 1393
407 1394
407 1395
407 1396
407 1397
407 1398
407 1399
407 1400
407 1401
407 1402
407 1403
407 1404
407 1405
407 1406
407 1407
407 1408
407 1409
407 1410
407 1411
407 1412
407 1413
407 1414
407 1415
407 1416
407 1417
407 1418
407 1419
407 1420
407 1421
407 1422
407 1423
407 1424
407 1425
407 1426
407 1427
407 1428
407 1429
407 1430
407 1431
407 1432
407 1433
407 1434
407 1435
407 1436
407 1437
407 1438
407 1439
407 1440
407 1441
407 1442
407 1443
407 1444
407 1445
407 1446
407 1447
407 1448
407 1449
407 1450
407 1451
407 1452
407 1453
407 1454
407 1455
407 1456
407 1457
407 1458
407 1459
407 1460
407 1461
407 1462
407 1463
407 1464
407 1465
407 1466
407 1467
407 1468
407 1297
408 1298
409 1298
410 1298
411 1298
412 1298
413 1298
414 1298
415 1298
416 1298
417 1298
418 1298
419 1298
420 1298
421 1298
422 1298
423 1298
406 1298
424 1298
424 1469
424 1470
424 1471
424 1472
424 1473
425 1469
425 1470
425 1471
425 1472
425 1473
426 1469
426 1470
426 1471
426 1472
426 1473
427 1469
427 1470
427 1471
427 1472
427 1473
428 1469
428 1470
428 1471
428 1472
428 1473
428 1474
428 1475
429 1474
430 1474
431 1474
432 1474
433 1474
434 1474
435 1474
436 1474
437 1474
438 1474
439 1474
440 1474
441 1474
442 1474
443 1474
444 1474
445 1474
446 1474
447 1474
448 1474
449 1474
450 1474
451 1474
452 1474
453 1474
454 1474
455 1474
456 1474
457 1474
458 1474
459 1474
460 1474
461 1474
462 1474
463 1474
464 1474
465 1474
466 1474
467 1474
468 1474
469 1474
470 1474
471 1474
472 1474
473 1474
474 1474
475 1474
476 1474
477 1474
478 1474
479 1474
480 1474
481 1474
482 1474
483 1474
484 1474
485 1474
486 1474
487 1474
488 1474
489 1474
490 1474
491 1474
492 1474
493 1474
494 1474
495 1474
496 1474
497 1474
498 1474
499 1474
500 1474
501 1474
502 1474
503 1474
504 1474
505 1474
506 1474
507 1474
508 1474
509 1474
510 1474
511 1474
512 1474
513 1474
514 1474
515 1474
516 1474
517 1474
518 1474
519 1474
520 1474
521 1474
522 1474
523 1474
524 1474
525 1474
526 1474
527 1474
528 1474
529 1474
530 1474
531 1474
532 1474
533 1474
534 1474
535 1474
536 1474
537 1474
538 1474
539 1474
540 1474
541 1474
542 1474
543 1474
544 1474
545 1474
546 1474
547 1474
548 1474
549 1474
550 1474
551 1474
552 1474
553 1474
554 1474
555 1474
556 1474
557 1474
558 1474
559 1474
560 1474
561 1474
562 1474
563 1474
564 1474
565 1474
566 1474
567 1474
568 1474
569 1474
570 1474
571 1474
572 1474
573 1474
574 1474
575 1474
576 1474
577 1474
578 1474
579 1474
580 1474
581 1474
582 1474
583 1474
584 1474
585 1474
586 1474
587 1474
588 1474
589 1474
590 1474
591 1474
592 1474
593 1474
594 1474
595 1474
596 1474
597 1474
598 1474
600 1474
600 1476
600 1477
600 1478
600 1479
600 1480
600 1481
600 1482
600 1483
600 1484
600 1485
600 1486
600 1487
600 1488
600 1489
600 1490
600 1491
600 1492
600 1493
600 1494
600 1495
600 1496
600 1497
600 1498
600 1499
600 1500
600 1501
600 1502
600 1503
600 1504
600 1505
600 1506
600 1507
600 1508
600 1509
600 1510
600 1511
600 1512
600 1513
600 1514
600 1515
600 1516
600 1517
600 1518
600 1519
600 1520
600 1521
600 1522
600 1523
600 1524
600 1525
600 1526
600 1527
600 1528
600 1529
600 1530
600 1531
600 1532
600 1533
600 1534
600 1535
600 1536
600 1537
600 1538
600 1539
600 1540
600 1541
600 1542
600 1543
600 1544
600 1545
600 1546
600 1547
600 1548
600 1549
600 1550
600 1551
600 1552
600 1553
600 1554
600 1555
600 1556
600 1557
600 1558
600 1559
600 1560
600 1561
600 1562
600 1563
600 1564
600 1565
600 1566
600 1567
600 1568
600 1569
600 1570
600 1571
600 1572
600 1573
600 1574
600 1575
600 1576
600 1577
600 1578
600 1579
600 1580
600 1581
600 1582
600 1583
600 1584
600 1585
600 1586
600 1587
600 1588
600 1589
600 1590
600 1591
600 1592
600 1593
600 1594
600 1595
600 1596
600 1597
600 1598
600 1599
600 1600
600 1601
600 1602
600 1603
600 1604
600 1605
600 1606
600 1607
600 1608
600 1609
600 1610
600 1611
600 1612
600 1613
600 1614
600 1615
600 1616
600 1617
600 1618
600 1619
600 1620
600 1621
600 1622
600 1623
600 1624
600 1625
600 1626
600 1627
600 1628
600 1629
600 1630
600 1631
600 1632
600 1633
600 1634
600 1635
600 1636
600 1637
600 1638
600 1639
600 1640
600 1641
600 1642
600 1643
600 1644
600 1645
600 1646
601 1475
602 1475
603 1475
604 1475
605 1475
606 1475
607 1475
608 1475
609 1475
610 1475
611 1475
612 1475
613 1475
614 1475
615 1475
616 1475
599 1475
617 1475
617 1647
617 1648
617 1649
617 1650
617 1651
618 1647
618 1648
618 1649
618 1650
618 1651
619 1647
619 1648
619 1649
619 1650
619 1651
620 1647
620 1648
620 1649
620 1650
620 1651
621 1647
621 1648
621 1649
621 1650
621 1651
621 1652
621 1654
622 1652
623 1652
624 1652
625 1652
626 1652
627 1652
628 1652
629 1652
630 1652
631 1652
632 1652
633 1652
634 1652
635 1652
636 1652
637 1652
638 1652
639 1652
640 1652
641 1652
642 1652
643 1652
644 1652
645 1652
646 1652
647 1652
648 1652
649 1652
650 1652
651 1652
652 1652
653 1652
654 1652
655 1652
656 1652
657 1652
658 1652
659 1652
660 1652
661 1652
662 1652
663 1652
664 1652
665 1652
666 1652
667 1652
668 1652
669 1652
670 1652
671 1652
672 1652
673 1652
674 1652
675 1652
676 1652
677 1652
678 1652
679 1652
680 1652
681 1652
682 1652
683 1652
684 1652
685 1652
686 1652
687 1652
688 1652
689 1652
690 1652
691 1652
692 1652
693 1652
694 1652
695 1652
696 1652
697 1652
698 1652
700 1652
700 1655
700 1656
700 1657
700 1658
700 1659
700 1660
700 1661
700 1662
700 1663
700 1664
700 1665
700 1666
700 1667
700 1668
700 1669
700 1670
700 1671
700 1672
700 1673
700 1674
700 1675
700 1676
700 1677
700 1678
700 1679
700 1680
700 1681
700 1682
700 1683
700 1684
700 1685
700 1686
700 1687
700 1688
700 1689
700 1690
700 1691
700 1692
700 1693
700 1694
700 1695
700 1696
700 1697
700 1698
700 1699
700 1700
700 1701
700 1702
700 1703
700 1704
700 1705
700 1706
700 1707
700 1708
700 1709
700 1710
700 1711
700 1712
700 1713
700 1714
700 1715
700 1716
700 1717
700 1718
700 1719
700 1720
700 1721
700 1722
700 1723
700 1724
700 1725
700 1726
700 1727
700 1728
700 1729
700 1730
700 1731
700 1653
701 1654
702 1654
703 1654
704 1654
705 1654
706 1654
707 1654
708 1654
709 1654
710 1654
699 1654
711 1654
711 1732
711 1733
711 1734
711 1735
711 1736
712 1732
712 1733
712 1734
712 1735
712 1736
713 1732
713 1733
713 1734
713 1735
713 1736
714 1732
714 1733
714 1734
714 1735
714 1736
715 1732
715 1733
715 1734
715 1735
715 1736
715 1737
715 1739
716 1737
717 1737
718 1737
719 1737
720 1737
721 1737
722 1737
723 1737
724 1737
725 1737
726 1737
727 1737
728 1737
729 1737
730 1737
731 1737
732 1737
733 1737
734 1737
735 1737
736 1737
737 1737
738 1737
739 1737
740 1737
741 1737
742 1737
743 1737
744 1737
745 1737
746 1737
747 1737
748 1737
749 1737
750 1737
751 1737
752 1737
753 1737
754 1737
755 1737
756 1737
757 1737
758 1737
759 1737
760 1737
761 1737
762 1737
763 1737
764 1737
765 1737
766 1737
767 1737
768 1737
769 1737
770 1737
771 1737
772 1737
773 1737
774 1737
775 1737
776 1737
777 1737
778 1737
779 1737
780 1737
781 1737
782 1737
783 1737
784 1737
785 1737
786 1737
787 1737
788 1737
789 1737
790 1737
791 1737
792 1737
793 1737
794 1737
795 1737
796 1737
797 1737
798 1737
799 1737
800 1737
801 1737
802 1737
803 1737
804 1737
805 1737
806 1737
807 1737
808 1737
809 1737
810 1737
811 1737
812 1737
813 1737
814 1737
815 1737
816 1737
817 1737
818 1737
819 1737
820 1737
821 1737
822 1737
823 1737
824 1737
825 1737
826 1737
827 1737
828 1737
829 1737
830 1737
831 1737
832 1737
833 1737
834 1737
835 1737
836 1737
837 1737
838 1737
839 1737
840 1737
841 1737
842 1737
843 1737
844 1737
845 1737
846 1737
847 1737
848 1737
849 1737
850 1737
851 1737
852 1737
853 1737
854 1737
855 1737
856 1737
857 1737
858 1737
859 1737
860 1737
861 1737
862 1737
863 1737
864 1737
865 1737
866 1737
867 1737
869 1737
869 1740
869 1741
869 1742
869 1743
869 1744
869 1745
869 1746
869 1747
869 1748
869 1749
869 1750
869 1751
869 1752
869 1753
869 1754
869 1755
869 1756
869 1757
869 1758
869 1759
869 1760
869 1761
869 1762
869 1763
869 1764
869 1765
869 1766
869 1767
869 1768
869 1769
869 1770
869 1771
869 1772
869 1773
869 1774
869 1775
869 1776
869 1777
869 1778
869 1779
869 1780
869 1781
869 1782
869 1783
869 1784
869 1785
869 1786
869 1787
869 1788
869 1789
869 1790
869 1791
869 1792
869 1793
869 1794
869 1795
869 1796
869 1797
869 1798
869 1799
869 1800
869 1801
869 1802
869 1803
869 1804
869 1805
869 1806
869 1807
869 1808
869 1809
869 1810
869 1811
869 1812
869 1813
869 1814
869 1815
869 1816
869 1817
869 1818
869 1819
869 1820
869 1821
869 1822
869 1823
869 1824
869 1825
869 1826
869 1827
869 1828
869 1829
869 1830
869 1831
869 1832
869 1833
869 1834
869 1835
869 1836
869 1837
869 1838
869 1839
869 1840
869 1841
869 1842
869 1843
869 1844
869 1845
869 1846
869 1847
869 1848
869 1849
869 1850
869 1851
869 1852
869 1853
869 1854
869 1855
869 1856
869 1857
869 1858
869 1859
869 1860
869 1861
869 1862
869 1863
869 1864
869 1865
869 1866
869 1867
869 1868
869 1869
869 1870
869 1871
869 1872
869 1873
869 1874
869 1875
869 1876
869 1877
869 1878
869 1879
869 1880
869 1881
869 1882
869 1883
869 1884
869 1885
869 1886
869 1887
869 1888
869 1889
869 1890
869 1891
869 1738
870 1739
871 1739
872 1739
873 1739
874 1739
875 1739
876 1739
877 1739
878 1739
879 1739
880 1739
881 1739
882 1739
883 1739
884 1739
868 1739
885 1739
885 1892
885 1893
885 1894
885 1895
885 1896
886 1892
886 1893
886 1894
886 1895
886 1896
887 1892
887 1893
887 1894
887 1895
887 1896
888 1892
888 1893
888 1894
888 1895
888 1896
889 1892
889 1893
889 1894
889 1895
889 1896
889 1897
889 1899
890 1897
891 1897
892 1897
893 1897
894 1897
895 1897
896 1897
897 1897
898 1897
899 1897
900 1897
901 1897
902 1897
903 1897
904 1897
905 1897
906 1897
907 1897
908 1897
909 1897
910 1897
911 1897
912 1897
913 1897
914 1897
915 1897
916 1897
917 1897
918 1897
919 1897
920 1897
921 1897
922 1897
923 1897
924 1897
925 1897
926 1897
927 1897
928 1897
929 1897
930 1897
931 1897
932 1897
933 1897
934 1897
935 1897
936 1897
937 1897
938 1897
939 1897
940 1897
941 1897
942 1897
943 1897
944 1897
945 1897
946 1897
947 1897
948 1897
949 1897
950 1897
951 1897
952 1897
953 1897
954 1897
955 1897
956 1897
957 1897
958 1897
959 1897
960 1897
961 1897
962 1897
963 1897
964 1897
965 1897
966 1897
967 1897
968 1897
969 1897
970 1897
971 1897
972 1897
973 1897
974 1897
975 1897
976 1897
977 1897
978 1897
979 1897
980 1897
981 1897
982 1897
983 1897
984 1897
985 1897
986 1897
987 1897
988 1897
989 1897
990 1897
991 1897
992 1897
993 1897
994 1897
995 1897
996 1897
997 1897
998 1897
999 1897
1000 1897
1001 1897
1002 1897
1003 1897
1004 1897
1005 1897
1006 1897
1007 1897
1008 1897
1009 1897
1010 1897
1011 1897
1012 1897
1013 1897
1014 1897
1015 1897
1016 1897
1017 1897
1018 1897
1019 1897
1020 1897
1021 1897
1022 1897
1023 1897
1024 1897
1025 1897
1026 1897
1027 1897
1028 1897
1029 1897
1030 1897
1031 1897
1032 1897
1033 1897
1034 1897
1035 1897
1036 1897
1037 1897
1038 1897
1039 1897
1040 1897
1041 1897
1042 1897
1043 1897
1044 1897
1045 1897
1046 1897
1047 1897
1048 1897
1049 1897
1050 1897
1051 1897
1052 1897
1053 1897
1054 1897
1055 1897
1056 1897
1057 1897
1058 1897
1059 1897
1061 1897
1061 1900
1061 1901
1061 1902
1061 1903
1061 1904
1061 1905
1061 1906
1061 1907
1061 1908
1061 1909
1061 1910
1061 1911
1061 1912
1061 1913
1061 1914
1061 1915
1061 1916
1061 1917
1061 1918
1061 1919
1061 1920
1061 1921
1061 1922
1061 1923
1061 1924
1061 1925
1061 1926
1061 1927
1061 1928
1061 1929
1061 1930
1061 1931
1061 1932
1061 1933
1061 1934
1061 1935
1061 1936
1061 1937
1061 1938
1061 1939
1061 1940
1061 1941
1061 1942
1061 1943
1061 1944
1061 1945
1061 1946
1061 1947
1061 1948
1061 1949
1061 1950
1061 1951
1061 1952
1061 1953
1061 1954
1061 1955
1061 1956
1061 1957
1061 1958
1061 1959
1061 1960
1061 1961
1061 1962
1061 1963
1061 1964
1061 1965
1061 1966
1061 1967
1061 1968
1061 1969
1061 1970
1061 1971
1061 1972
1061 1973
1061 1974
1061 1975
1061 1976
1061 1977
1061 1978
1061 1979
1061 1980
1061 1981
1061 1982
1061 1983
1061 1984
1061 1985
1061 1986
1061 1987
1061 1988
1061 1989
1061 1990
1061 1991
1061 1992
1061 1993
1061 1994
1061 1995
1061 1996
1061 1997
1061 1998
1061 1999
1061 2000
1061 2001
1061 2002
1061 2003
1061 2004
1061 2005
1061 2006
1061 2007
1061 2008
1061 2009
1061 2010
1061 2011
1061 2012
1061 2013
1061 2014
1061 2015
1061 2016
1061 2017
1061 2018
1061 2019
1061 2020
1061 2021
1061 2022
1061 2023
1061 2024
1061 2025
1061 2026
1061 2027
1061 2028
1061 2029
1061 2030
1061 2031
1061 2032
1061 2033
1061 2034
1061 2035
1061 2036
1061 2037
1061 2038
1061 2039
1061 2040
1061 2041
1061 2042
1061 2043
1061 2044
1061 2045
1061 2046
1061 2047
1061 2048
1061 2049
1061 2050
1061 2051
1061 2052
1061 2053
1061 2054
1061 2055
1061 2056
1061 2057
1061 2058
1061 2059
1061 2060
1061 2061
1061 2062
1061 2063
1061 2064
1061 2065
1061 2066
1061 2067
1061 2068
1061 2069
1061 1898
1062 1899
1063 1899
1064 1899
1065 1899
1066 1899
1067 1899
1068 1899
1069 1899
1070 1899
1071 1899
1072 1899
1073 1899
1074 1899
1075 1899
1076 1899
1077 1899
1078 1899
1060 1899
